108
# CELL(abcABC):   25.26300   25.26300   25.26300   90.00000    90.00000    90.00000  positions{atomic_unit} cell{atomic_unit}
   C  4.75965319219000e+01  2.12673557610000e+00  1.48526615310000e+01
   O  4.63483678160000e+01  3.81297599240000e+00  1.41111707939000e+01
   O  4.90595578882000e+01  6.81756494300000e-01  1.55335676485000e+01
   C  3.12955653911000e+01  3.43967949356000e+01  4.57772925810000e+00
   O  3.13271238174000e+01  3.51967160045000e+01  2.56020095480000e+00
   O  3.15778904742000e+01  3.35964959215000e+01  6.58029093050000e+00
   C  3.38347903859000e+01  1.63944701795000e+01  7.43431485840000e+00
   O  3.38767423059000e+01  1.74452523916000e+01  9.30365083890000e+00
   O  3.40150702582000e+01  1.52551920930000e+01  5.53583930100000e+00
   C  2.94610192685000e+01  4.23619905540000e+00 -5.10197708000000e-02
   O  3.11617727814000e+01  4.34757951330000e+00  1.44164371520000e+00
   O  2.76725824634000e+01  4.07540225940000e+00 -1.33666375980000e+00
   C  4.49140656868000e+01  2.44855593528000e+01  2.17326063332000e+01
   O  4.43278726427000e+01  2.25807154183000e+01  2.09202130719000e+01
   O  4.52751923494000e+01  2.65965724075000e+01  2.22360293730000e+01
   C  5.24393330636000e+01  2.38364384287000e+01  2.11891210995000e+01
   O  5.46565487266000e+01  2.38434304154000e+01  2.13314174768000e+01
   O  5.02330778121000e+01  2.40140726845000e+01  2.09797394448000e+01
   C  3.90190650385000e+01  2.49428730751000e+01  1.63892167409000e+01
   O  4.11382039155000e+01  2.53121255601000e+01  1.60007646385000e+01
   O  3.68742258861000e+01  2.45375268212000e+01  1.66770598243000e+01
   C  3.70864421299000e+01  1.14500584640000e+01  1.15043125000000e-01
   O  3.82491906149000e+01  1.00330662261000e+01  1.40948057660000e+00
   O  3.60023062518000e+01  1.28735135653000e+01 -1.16711753180000e+00
   C  5.07164697550000e+01  3.78232463463000e+01  3.01864851281000e+01
   O  5.01629689729000e+01  3.90761347674000e+01  3.19042461761000e+01
   O  5.16108771302000e+01  3.64108650401000e+01  2.87618206021000e+01
   C  2.87614426569000e+01  1.09989430434000e+01 -2.82640667410000e+00
   O  3.07500014587000e+01  1.00431573636000e+01 -3.43486069190000e+00
   O  2.67915921437000e+01  1.18680469857000e+01 -2.26525250110000e+00
   C  1.65321556250000e+01  6.25017467360000e+00 -3.69792946590000e+00
   O  1.67167629702000e+01  6.88512265180000e+00 -5.76069781260000e+00
   O  1.61737690653000e+01  5.93937141780000e+00 -1.52867316220000e+00
   C  2.98070281221000e+01 -9.15054522830000e+00 -2.35172636861000e+01
   O  2.95500253690000e+01 -8.23724059180000e+00 -2.15587515297000e+01
   O  3.01379191666000e+01 -1.00731284200000e+01 -2.54805001578000e+01
   C  1.59306935938000e+01  1.73914140942000e+01  1.67952810907000e+01
   O  1.52608234768000e+01  1.94501951189000e+01  1.72609285053000e+01
   O  1.64458896274000e+01  1.53146428769000e+01  1.62736788856000e+01
   C  4.52166108395000e+01  1.71527227873000e+01  9.60402280660000e+00
   O  4.51916664546000e+01  1.69167526861000e+01  7.44907361940000e+00
   O  4.51124869300000e+01  1.72357384560000e+01  1.17979003519000e+01
   C  4.02504105818000e+01  2.50721303421000e+01 -1.53724307018000e+01
   O  3.81934436942000e+01  2.46044231261000e+01 -1.48498647363000e+01
   O  4.22393473288000e+01  2.55997418764000e+01 -1.61023941095000e+01
   C  5.13138121833000e+01 -3.92205098430000e+00  4.95883032580000e+00
   O  5.26766826650000e+01 -2.14319509070000e+00  4.83299346310000e+00
   O  5.00803879412000e+01 -5.75521760690000e+00  5.10947929250000e+00
   C  5.32500255714000e+01  3.80800601267000e+01  1.56636186005000e+01
   O  5.38987685503000e+01  3.97721208994000e+01  1.43928533702000e+01
   O  5.27399884902000e+01  3.63324414059000e+01  1.69638068666000e+01
   C  2.25478341837000e+01  3.09066597545000e+01  4.07630932800000e+00
   O  2.36060808140000e+01  3.04595505532000e+01  2.17479131150000e+00
   O  2.17781487328000e+01  3.13819258750000e+01  6.07444904120000e+00
   C  2.31926087377000e+01  3.16937306857000e+01 -3.73451456370000e+00
   O  2.37141731484000e+01  3.01519031400000e+01 -5.32770486550000e+00
   O  2.25329053473000e+01  3.32308339162000e+01 -2.32729220980000e+00
   C  1.19580924356000e+01  1.38588734589000e+01 -1.36068784801000e+01
   O  1.35406435794000e+01  1.51998042202000e+01 -1.42859704605000e+01
   O  1.04407368432000e+01  1.24702460101000e+01 -1.27654968200000e+01
   C  3.56079204094000e+01 -2.64145917820000e+00  2.32889847701000e+01
   O  3.49450044846000e+01 -4.58388976530000e+00  2.25895971311000e+01
   O  3.60404787195000e+01 -5.81661480900000e-01  2.39596485721000e+01
   C  2.79123887087000e+01  3.35758979067000e+01 -1.41746466944000e+01
   O  2.65151252115000e+01  3.38608686064000e+01 -1.58326357051000e+01
   O  2.91348525392000e+01  3.29983976027000e+01 -1.23956207254000e+01
   C  5.57556134412000e+01  2.67258296745000e+01  1.45229799112000e+01
   O  5.47447989367000e+01  2.66271859708000e+01  1.26229169838000e+01
   O  5.67411056156000e+01  2.70181703061000e+01  1.64490076755000e+01
   C  2.63955055478000e+01  1.98302190427000e+01  1.61201386379000e+01
   O  2.57044327037000e+01  2.04834973643000e+01  1.41093755541000e+01
   O  2.69609116045000e+01  1.93901018281000e+01  1.81883493959000e+01
   C  4.34221269108000e+01  8.21456387830000e+00 -1.40985852179000e+01
   O  4.14148598203000e+01  7.31783214000000e+00 -1.37493260354000e+01
   O  4.53749698888000e+01  9.26277606290000e+00 -1.42362706634000e+01
   C  8.47124537794000e+01 -8.49743698200000e-01  5.60453084560000e+00
   O  8.41283394340000e+01 -3.01010695070000e+00  5.71063896760000e+00
   O  8.53868970336000e+01  1.22497149710000e+00  5.41964004150000e+00
   C  4.33193258095000e+01  1.02161806877000e+01  4.81738432530000e+00
   O  4.50459685704000e+01  1.06297661475000e+01  3.47775747500000e+00
   O  4.16956731226000e+01  9.85032970980000e+00  6.30321928600000e+00
   C  3.85587277543000e+01  5.93090544470000e+00 -2.00361991904000e+01
   O  3.72003926153000e+01  7.32512648290000e+00 -1.91330990750000e+01
   O  3.98291906284000e+01  4.45346086810000e+00 -2.10271715706000e+01
   C  3.61355319436000e+01  5.35268704490000e+00 -1.23688244090000e+01
   O  3.72984694012000e+01  3.55330872550000e+00 -1.18829569248000e+01
   O  3.49850666784000e+01  7.11105830740000e+00 -1.29527875762000e+01
   C  4.79701307769000e+01 -7.84364843440000e+00  2.38791462391000e+01
   O  4.63372184319000e+01 -8.69514012930000e+00  2.27073270687000e+01
   O  4.96967735377000e+01 -7.01572162430000e+00  2.50643824650000e+01
   C  6.92465572234000e+01  2.39027678157000e+01  4.24012968580000e+00
   O  6.79689133900000e+01  2.22683436898000e+01  4.96313890140000e+00
   O  7.05207995498000e+01  2.56018205751000e+01  3.73319175540000e+00
   C  6.02151781247000e+01  4.47169672520000e+00 -4.90618255600000e+00
   O  6.22381299420000e+01  4.09692624000000e+00 -5.72626700260000e+00
   O  5.81576443193000e+01  5.06172591330000e+00 -4.37437582970000e+00
   C  4.00247772824000e+01  1.68708323412000e+01  3.70220024690000e+00
   O  3.87078271456000e+01  1.83376944516000e+01  4.61917095200000e+00
   O  4.12810672106000e+01  1.54159699917000e+01  2.63541205460000e+00
   C  3.42424043111000e+01 -1.04522641725000e+01 -6.21716115820000e+00
   O  3.21487767367000e+01 -1.03286760839000e+01 -5.60214979070000e+00
   O  3.63683462023000e+01 -1.04904744348000e+01 -6.92975798290000e+00
   C  4.52997587890000e+01  1.11057881585000e+01  1.89354337223000e+01
   O  4.62342283581000e+01  1.04786447492000e+01  1.70770203588000e+01
   O  4.41451361264000e+01  1.16543945500000e+01  2.07435236792000e+01
   C  3.41573666355000e+01 -4.77688749450000e+00 -1.18074056743000e+01
   O  3.20985100218000e+01 -4.25999070740000e+00 -1.12233858153000e+01
   O  3.62521280456000e+01 -5.05310876220000e+00 -1.23576183330000e+01
